webassembly/ejemplos_dzn/folder16_json_33.dzn
TERM = { '.', 's(5)', 's(2)', 's(4)', 'in_1', 'local_0', 'local_1', 'in_2', 'in_4', 'in_3', 's(6)', 's(1)', 's(0)', 's(3)', 'in_0'};
null = '.';
s = 16;
n = 10;
ndeps = 5;
max_registers_sz = 5;
NR = 2;
registers = [|'local_0', 's(4)', |'local_1', 'local_0'|];
dependencies = [|'i32.store_0', 'i32.load16_s_4', |'i32.store_0', 'i32.load16_u_7', |'i32.load16_s_4', 'call[function_index(0)]_8', |'i32.load16_u_7', 'call[function_index(0)]_8', |'call[function_index(0)]_8', 'i32.store16_14'|];
GET_ENUM = { GET1, GET2, GET3, GET4, GET5, GET6, GET7};
SET_ENUM = { SET1, SET2, SET3, SET4, SET5, SET6, SET7};
TEE_ENUM = { TEE1, TEE2, TEE3, TEE4, TEE5, TEE6, TEE7};
N = 10;
OP = { 'i32.const_0', 'i32.add_0', 'call[function_index(0)]_8', 'i32.store_0', 'i32.sub_0', 'i32.sub_1', 'i32.load16_s_4', 'i32.load16_u_7', 'i32.const_1', 'i32.store16_14' };
in_ops = [0, 2, 2, 2, 2, 2, 1, 1, 0, 2 ];
out_ops = [1, 1, 0, 0, 1, 1, 1, 1, 1, 0 ];
in1 = ['.', 's(5)', 's(3)', 'in_0', 'in_2', 'local_0', 's(1)', 'local_0', '.', 's(6)' ];
in2 = ['.', 'in_4', 's(2)', 'in_1', 'in_3', 's(0)', '.', '.', '.', 'local_0' ];
in3 = ['.', '.', '.', '.', '.', '.', '.', '.', '.', '.' ];
out1 = ['s(5)', 's(4)', '.', '.', 's(0)', 's(1)', 's(2)', 's(3)', 's(6)', '.' ];
out2 = ['.', '.', '.', '.', '.', '.', '.', '.', '.', '.' ];
out3 = ['.', '.', '.', '.', '.', '.', '.', '.', '.', '.' ];
comm = [false, true, false, false, false, false, false, false, false, false ];
gas = [1, 1, 1, 1, 1, 1, 1, 1, 1, 1 ];
sz = [1, 1, 1, 1, 1, 1, 1, 1, 1, 1 ];
stor = [false, false, true, true, false, false, false, false, false, true ];
lb = [ 1, 1, 1, 1, 1, 1, 1, 1, 1, 1 ];
ub = [ 16, 16, 16, 16, 16, 16, 16, 16, 16, 16 ];
startstack = [ 'in_0', 'in_1', 'in_2', 'in_3', 'in_4', null, null, null, null, null ];
endstack = [ 's(4)', null, null, null, null, null, null, null, null, null ];
